int NumberPatients = 84
int NumberOfRooms = 3
int NumberSurgeons = 17
int NumberOfDays = 6
Duration = [217,98,53,210,64,131,238,201,31,119,68,98,256,58,201,117,98,46,87,157,85,117,32,59,93,85,53,29,140,32,88,32,60,31,78,66,30,66,119,50,42,47,201,249,32,131,30,47,130,65,98,93,98,32,76,103,32,210,30,132,66,39,120,32,216,98,98,32,85,85,125,60,201,96,277,50,32,93,47,47,122,103,103,85];
Priority = [0,0,1,0,0,0,0,0,0,0,0,0,0,0,0,0,0,0,0,0,0,0,0,0,0,0,0,0,0,0,0,0,0,0,0,0,0,0,0,0,0,0,0,0,0,0,0,0,0,0,0,0,0,0,0,0,0,0,0,0,1,0,0,0,0,0,0,0,0,0,0,0,0,0,0,0,0,0,0,0,0,0,0,0];
Waiting = [56,190,366,543,35,99,317,56,84,59,37,178,81,58,178,207,65,480,120,79,214,79,37,507,79,65,45,424,176,46,66,207,113,52,163,283,183,221,39,35,58,39,158,148,70,43,77,32,32,324,39,200,38,50,172,543,58,56,199,94,214,361,50,280,85,155,36,156,1065,60,155,66,144,169,59,163,172,39,354,220,417,200,107,148];
Surgeon = [3,4,5,5,6,12,1,6,12,4,4,4,1,1,5,1,3,6,8,6,5,3,3,5,4,1,1,6,8,3,5,3,2,4,3,2,3,5,5,3,3,6,5,4,1,4,7,5,5,1,3,5,2,3,1,8,3,5,1,5,4,2,4,1,2,8,3,1,4,1,3,1,7,1,2,2,5,13,3,5,6,3,1,3];
BlockAvailability = [[[0,1],[0,0],[1,0]],[[0,0],[1,0],[0,0]],[[1,0],[0,0],[0,0]],[[0,1],[1,0],[1,0]],[[0,0],[0,0],[1,0]],[[0,0],[1,0],[0,1]]];
SurgeonAvailability = [[[1,1],[1,1],[1,1],[1,1],[1,1],[1,1]],[[1,1],[1,1],[1,1],[1,1],[1,1],[1,1]],[[1,1],[1,1],[1,1],[1,1],[1,1],[1,1]],[[1,1],[1,1],[1,1],[1,1],[1,1],[1,1]],[[1,1],[1,1],[1,1],[1,1],[1,1],[1,1]],[[1,1],[1,1],[1,1],[1,1],[1,1],[1,1]],[[1,1],[1,1],[1,1],[1,1],[1,1],[1,1]],[[1,1],[1,1],[1,1],[1,1],[1,1],[1,1]],[[1,1],[1,1],[1,1],[1,1],[1,1],[1,1]],[[1,1],[1,1],[1,1],[1,1],[1,1],[1,1]],[[1,1],[1,1],[1,1],[1,1],[1,1],[1,1]],[[1,1],[1,1],[1,1],[1,1],[1,1],[1,1]],[[1,1],[1,1],[1,1],[1,1],[1,1],[1,1]],[[1,1],[1,1],[1,1],[1,1],[1,1],[1,1]],[[1,1],[1,1],[1,1],[1,1],[1,1],[1,1]],[[1,1],[1,1],[1,1],[1,1],[1,1],[1,1]],[[1,1],[1,1],[1,1],[1,1],[1,1],[1,1]]];
